Maximize
score: + 88.146 c0 + 202.569 c1 + 39.594 c2 + 42.52 c3 + 174.184 c4 + 422.98 c5 + 85.901 c6 + 78.739 c7 + 62.472 c8 + 96.157 c9 + 263.406 c10 + 128.192 c11 + 53.409 c12 + 51.202 c13 + 115.279 c14 + 83.416 c15 + 77.508 c16 + 73.792 c17 + 8.044 c18 + 19.956 c19 + 26.852 c20 + 74.21 c21 + 21.252 c22 + 33.752 c23 + 42.799 c24 + 29.772 c25 + 17.81 c26 + 51.521 c27 + 352.625 c28 + 130.373 c29 + 3.095 c30 + 10.396 c31 + 2.707 c32 + 35.175 c33 + 90.799 c34 + 79.937 c35 + 12.64 c36 + 116.687 c37 + 23.158 c38 + 125.827 c39 + 16.498 c40 + 24.715 c41 + 10.88 c42 + 45.488 c43 + 575.16 c44 + 140.547 c45 + 23.116 c46 + 178.716 c47 + 3.582 c48 + 51.664 c49 + 30.149 c50 + 44.682 c51 + 81.604 c52 + 325.396 c53 + 215.032 c54 + 18.586 c55 + 34.177 c56 + 46.358 c57 + 15.63 c58 + 20.069 c59 + 15.134 c60 + 36.552 c61 + 11.274 c62 + 4.66 c63 + 20.012 c64 + 67.073 c65 + 7.426 c66 + 14.517 c67 + 14.295 c68 + 63.916 c69 + 79.653 c70 + 17.109 c71 + 18.117 c72 + 3.683 c73 + 13.127 c74 + 34.43 c75 + 141.187 c76 + 24.861 c77 + 64.87 c78 + 64.851 c79 + 15.431 c80 + 14.372 c81 + 20.7 c82 + 16.486 c83 + 20.236 c84 + 9.524 c85 + 16.355 c86 + 5.905 c87 + 5.393 c88 + 5.759 c89 + 4.178 c90 + 4.324 c91 + 9.776 c92 + 7.652 c93 + 39.488 c94 + 38.439 c95 + 6.343 c96 + 2.431 c97 + 24.45 c98 + 24.108 c99 + 5.884 c100 + 2.753 c101 + 23.947 c102 + 9.052 c103 + 4.064 c104 + 2.347 c105 + 3.11 c106 + 3.734 c107 + 1.443 c108 + 7.95 c109 + 2.164 c110 + 0.935 c111 + 1.508 c112 + 1.684 c113 + 3.128 c114 + 7.183 c115 + 8.93 c116 + 3.937 c117

Subject To
index_0: s51 + s52 + s53 + s60 + s61 + s62 + s69 + s73 + s133 - c0 >= 0
index_1: s51 + s52 + s53 + s60 + s61 + s62 + s69 + s73 + s129 - c1 >= 0
index_2: s33 + s58 + s60 + s69 + s71 + s79 + s86 + s89 + s91 + s98 + s100 + s105 + s116 + s119 + s129 - c2 >= 0
index_3: s33 + s58 + s60 + s69 + s71 + s79 + s86 + s89 + s91 + s105 + s116 + s119 + s129 - c3 >= 0
index_4: s33 + s52 + s53 + s58 + s60 + s61 + s62 + s69 - c4 >= 0
index_5: s5 + s8 + s11 + s17 + s26 + s29 + s92 + s121 - c5 >= 0
index_6: s0 + s1 + s2 + s3 + s4 + s6 + s7 + s9 + s10 + s12 + s13 + s15 + s16 + s18 + s19 + s21 + s22 + s24 + s25 + s27 + s28 + s30 + s66 + s77 + s79 + s81 + s82 + s83 + s84 + s85 + s93 + s122 - c6 >= 0
index_7: s31 + s32 + s33 + s34 + s35 + s37 + s38 + s39 + s40 + s41 + s42 + s43 + s44 + s46 + s47 + s49 + s50 + s51 + s52 + s54 + s57 + s60 + s61 + s64 + s67 + s68 + s69 + s70 + s71 + s72 + s74 + s75 + s78 + s86 + s87 + s88 + s89 + s90 + s91 + s94 + s95 + s96 + s97 + s98 + s99 + s101 + s102 + s104 + s105 + s106 + s108 + s110 + s114 + s123 + s124 + s125 + s126 - c7 >= 0
index_8: s131 + s133 + s135 - c8 >= 0
index_9: s100 + s131 + s133 + s135 - c9 >= 0
index_10: s46 + s48 + s50 + s69 + s73 + s75 - c10 >= 0
index_11: s51 + s53 + s58 + s60 + s61 + s62 + s64 + s69 - c11 >= 0
index_12: s58 + s60 + s61 + s62 + s63 + s69 + s71 + s105 + s116 + s119 - c12 >= 0
index_13: s67 + s69 + s70 + s71 + s73 + s75 + s105 + s115 + s116 + s118 - c13 >= 0
index_14: s45 + s55 + s58 + s60 + s98 + s100 + s103 + s105 + s111 + s113 + s127 + s131 + s133 - c14 >= 0
index_15: s119 + s123 + s125 + s127 + s129 + s131 + s133 + s135 - c15 >= 0
index_16: s33 + s58 + s60 + s69 + s71 + s86 + s89 + s91 + s105 + s116 + s119 + s129 - c16 >= 0
index_17: s131 + s133 + s135 - c17 >= 0
index_18: s33 + s58 + s60 + s61 + s62 + s63 + s64 + s69 + s71 + s86 + s89 + s91 + s105 + s116 + s119 + s129 - c18 >= 0
index_19: s45 + s48 + s50 + s51 + s56 + s67 + s69 + s73 + s75 - c19 >= 0
index_20: s33 + s86 + s89 + s91 + s119 + s129 - c20 >= 0
index_21: s58 + s60 + s61 + s62 + s63 + s64 + s69 + s71 + s105 + s116 - c21 >= 0
index_22: s51 + s52 + s53 + s55 + s58 + s60 + s61 + s62 + s69 + s71 - c22 >= 0
index_23: s51 + s52 + s53 + s58 + s59 + s60 + s61 + s62 + s69 - c23 >= 0
index_24: s33 + s53 + s55 + s71 + s102 + s127 - c24 >= 0
index_25: s35 + s37 + s39 + s41 + s42 + s58 + s89 + s91 + s96 - c25 >= 0
index_26: s46 + s50 + s56 + s63 + s69 + s73 + s75 + s79 + s86 + s98 + s117 + s120 + s129 - c26 >= 0
index_27: s48 + s54 + s102 + s113 + s115 + s116 + s117 + s119 + s120 + s127 + s131 + s133 + s135 - c27 >= 0
index_28: s100 + s103 + s111 + s131 - c28 >= 0
index_29: s100 + s103 + s105 + s107 + s109 + s116 + s127 + s128 + s129 + s131 + s132 + s133 + s134 - c29 >= 0
index_30: s35 + s52 + s54 + s56 + s79 + s89 + s96 + s105 + s116 + s117 + s119 + s125 + s127 - c30 >= 0
index_31: s100 + s103 + s105 + s107 + s109 + s111 - c31 >= 0
index_32: s54 + s100 + s102 + s105 + s115 + s116 + s117 + s125 + s127 - c32 >= 0
index_33: s42 - c33 >= 0
index_34: s35 + s36 + s37 + s39 + s41 + s42 + s45 + s89 + s91 + s96 - c34 >= 0
index_35: s46 + s48 + s50 + s54 + s56 + s79 + s105 + s116 + s117 + s119 + s120 + s127 - c35 >= 0
index_36: s51 + s100 + s103 + s105 + s107 + s109 + s111 + s116 + s127 + s131 + s133 - c36 >= 0
index_37: s45 + s48 + s50 + s56 + s67 + s69 + s73 + s75 - c37 >= 0
index_38: s45 + s50 + s51 + s69 + s73 - c38 >= 0
index_39: s46 + s48 + s50 + s69 + s73 + s75 - c39 >= 0
index_40: s51 + s70 + s71 + s103 + s105 + s109 + s115 + s116 + s127 + s129 + s131 + s133 - c40 >= 0
index_41: s52 + s70 + s71 + s103 + s105 + s115 + s116 + s127 + s129 + s131 + s133 - c41 >= 0
index_42: s9 + s12 + s15 + s18 + s21 + s24 + s27 + s30 + s66 + s77 + s93 + s122 - c42 >= 0
index_43: s33 + s35 + s39 + s45 + s48 + s50 + s53 + s54 + s55 + s56 + s58 + s60 + s63 + s69 + s71 + s73 + s75 + s84 + s86 + s89 + s91 + s96 + s97 + s98 + s100 + s102 + s111 + s113 + s115 + s116 + s119 + s127 + s129 + s131 + s133 + s135 - c43 >= 0
index_44: s105 + s127 - c44 >= 0
index_45: s35 + s36 + s37 + s39 + s41 + s42 + s45 + s46 + s48 + s50 + s54 + s56 + s79 + s89 + s91 + s96 + s105 + s116 + s117 + s119 + s120 + s125 + s127 - c45 >= 0
index_46: s54 + s57 + s58 + s74 - c46 >= 0
index_47: s48 + s56 + s58 + s62 + s73 + s100 + s103 + s107 + s111 + s112 + s113 + s115 + s117 + s127 + s129 + s131 + s133 - c47 >= 0
index_48: s46 + s49 + s100 + s119 + s133 - c48 >= 0
index_49: s33 + s58 + s60 + s61 + s62 + s63 + s64 + s69 + s71 + s79 + s105 + s116 + s119 + s129 - c49 >= 0
index_50: s33 + s58 + s60 + s61 + s62 + s63 + s64 + s69 + s71 + s73 + s79 + s105 + s116 + s119 + s129 - c50 >= 0
index_51: s8 + s11 + s14 + s17 + s20 + s23 + s26 + s29 + s65 + s76 + s92 + s121 - c51 >= 0
index_52: s39 + s86 + s89 + s91 - c52 >= 0
index_53: s39 + s45 + s56 + s98 + s127 + s129 + s133 + s135 - c53 >= 0
index_54: s14 + s20 + s23 + s45 + s46 + s53 + s55 + s59 + s65 + s73 + s76 + s80 + s116 + s118 + s119 + s128 + s130 + s132 + s134 - c54 >= 0
index_55: s100 + s103 + s109 + s113 + s115 + s116 - c55 >= 0
index_56: s39 + s45 + s48 + s50 + s54 + s56 + s69 + s129 + s131 - c56 >= 0
index_57: s86 + s88 + s89 - c57 >= 0
index_58: s42 + s61 + s62 + s63 + s64 + s79 + s109 + s113 + s117 + s120 - c58 >= 0
index_59: s45 + s48 + s50 + s54 + s56 + s69 + s73 + s75 + s86 + s89 + s105 + s115 + s116 + s119 + s129 + s133 - c59 >= 0
index_60: s39 + s88 + s91 + s113 + s129 - c60 >= 0
index_61: s39 + s45 + s48 + s50 + s54 + s56 + s79 + s86 + s115 + s129 + s131 - c61 >= 0
index_62: s100 + s102 + s103 + s105 + s107 + s109 + s111 + s131 - c62 >= 0
index_63: s39 + s86 + s88 + s89 - c63 >= 0
index_64: s79 + s82 + s83 + s84 + s86 - c64 >= 0
index_65: s33 - c65 >= 0
index_66: s50 + s54 + s58 + s96 + s109 + s127 + s133 - c66 >= 0
index_67: s33 + s39 + s58 + s59 + s60 + s61 + s62 + s63 + s64 + s69 + s71 - c67 >= 0
index_68: s0 + s1 + s2 + s3 + s4 + s5 + s7 + s19 - c68 >= 0
index_69: s100 + s105 + s107 + s112 + s113 + s115 + s131 + s133 - c69 >= 0
index_70: s103 + s109 + s111 + s116 + s127 + s129 + s131 - c70 >= 0
index_71: s98 - c71 >= 0
index_72: s69 + s73 + s75 + s96 + s97 + s98 + s100 + s102 + s113 + s119 + s133 - c72 >= 0
index_73: s97 + s98 - c73 >= 0
index_74: s100 - c74 >= 0
index_75: s20 + s52 + s92 + s100 - c75 >= 0
index_76: s48 + s50 + s54 + s56 + s67 + s75 - c76 >= 0
index_77: s45 + s46 + s57 + s70 + s105 + s118 + s131 + s132 + s133 + s134 + s135 - c77 >= 0
index_78: s46 + s52 + s103 + s105 + s113 + s116 + s117 + s119 + s120 + s129 + s131 + s133 + s135 - c78 >= 0
index_79: s10 + s20 + s31 + s32 + s35 + s37 + s39 + s40 + s41 + s45 + s86 + s89 + s92 - c79 >= 0
index_80: s35 + s36 + s39 + s40 + s41 - c80 >= 0
index_81: s35 + s37 + s39 + s41 + s45 + s46 + s48 + s50 + s56 + s135 - c81 >= 0
index_82: s96 + s100 - c82 >= 0
index_83: s100 - c83 >= 0
index_84: s36 - c84 >= 0
index_85: s10 + s31 + s32 + s33 + s35 + s37 + s39 + s41 + s45 + s86 + s89 + s91 + s100 - c85 >= 0
index_86: s42 + s50 + s58 + s73 + s75 - c86 >= 0
index_87: s3 + s8 + s20 + s25 + s28 + s29 + s85 + s92 - c87 >= 0
index_88: s10 + s13 + s20 + s22 + s31 + s92 + s94 - c88 >= 0
index_89: s13 + s32 + s35 + s36 + s39 + s40 + s41 + s45 + s48 + s56 + s69 + s73 + s91 - c89 >= 0
index_90: s96 - c90 >= 0
index_91: s113 + s131 + s133 + s135 - c91 >= 0
index_92: s39 + s91 + s117 + s120 - c92 >= 0
index_93: s91 + s96 - c93 >= 0
index_94: s31 + s32 + s35 + s37 + s40 + s41 + s45 + s86 - c94 >= 0
index_95: s35 + s38 + s39 + s42 + s45 + s91 - c95 >= 0
index_96: s39 + s42 - c96 >= 0
index_97: s43 + s45 + s88 + s90 + s100 - c97 >= 0
index_98: s56 + s61 + s69 + s73 + s75 + s98 + s107 + s113 + s115 + s117 + s120 + s129 + s133 - c98 >= 0
index_99: s39 + s45 + s48 + s50 + s56 + s111 + s116 + s117 + s120 + s133 + s135 - c99 >= 0
index_100: s35 + s37 + s41 + s45 + s48 + s50 + s56 + s60 + s61 + s91 + s133 - c100 >= 0
index_101: s56 + s78 + s79 - c101 >= 0
index_102: s48 + s63 + s75 + s131 - c102 >= 0
index_103: s48 + s51 + s54 + s56 + s58 + s63 + s69 + s73 + s113 + s131 - c103 >= 0
index_104: s107 + s127 + s128 + s129 - c104 >= 0
index_105: s59 + s103 + s104 + s105 + s127 + s129 + s131 + s132 + s133 + s134 + s135 - c105 >= 0
index_106: s47 + s50 + s104 + s105 - c106 >= 0
index_107: s49 + s56 + s111 - c107 >= 0
index_108: s45 + s50 + s55 + s75 + s111 + s116 + s133 - c108 >= 0
index_109: s58 + s69 + s103 + s112 + s113 - c109 >= 0
index_110: s56 + s103 + s109 + s127 + s129 + s133 - c110 >= 0
index_111: s98 + s100 + s108 + s111 + s117 + s119 + s120 + s129 + s133 - c111 >= 0
index_112: s45 + s103 + s111 + s114 + s115 + s117 + s120 + s131 - c112 >= 0
index_113: s45 + s50 + s56 + s58 + s60 + s63 + s69 + s73 + s75 + s79 + s100 + s101 + s105 + s111 + s113 + s115 + s117 + s119 + s129 + s131 + s133 + s135 - c113 >= 0
index_114: s100 + s107 + s108 + s109 + s111 + s131 - c114 >= 0
index_115: s100 + s103 + s110 + s111 + s131 - c115 >= 0
index_116: s53 + s54 + s100 + s116 + s131 - c116 >= 0
index_117: s63 + s79 + s100 + s102 + s103 + s105 + s109 + s116 + s119 + s120 + s123 + s125 + s129 + s131 - c117 >= 0
length: 8 s0 + 24 s1 + 11 s2 + 64 s3 + 14 s4 + 37 s5 + 1 s6 + 24 s7 + 28 s8 + 4 s9 + 37 s10 + 4 s11 + 4 s12 + 27 s13 + 4 s14 + 4 s15 + 28 s16 + 4 s17 + 4 s18 + 14 s19 + 62 s20 + 4 s21 + 27 s22 + 4 s23 + 4 s24 + 18 s25 + 4 s26 + 4 s27 + 12 s28 + 28 s29 + 4 s30 + 37 s31 + 42 s32 + 117 s33 + 8 s34 + 182 s35 + 121 s36 + 83 s37 + 16 s38 + 295 s39 + 39 s40 + 129 s41 + 231 s42 + 21 s43 + 8 s44 + 242 s45 + 77 s46 + 19 s47 + 219 s48 + 28 s49 + 240 s50 + 77 s51 + 75 s52 + 62 s53 + 232 s54 + 54 s55 + 190 s56 + 18 s57 + 271 s58 + 23 s59 + 256 s60 + 115 s61 + 99 s62 + 117 s63 + 39 s64 + 4 s65 + 4 s66 + 27 s67 + 8 s68 + 287 s69 + 41 s70 + 89 s71 + 8 s72 + 193 s73 + 11 s74 + 121 s75 + 4 s76 + 4 s77 + 28 s78 + 144 s79 + 4 s80 + 4 s81 + 14 s82 + 8 s83 + 98 s84 + 41 s85 + 349 s86 + 13 s87 + 38 s88 + 169 s89 + 26 s90 + 283 s91 + 62 s92 + 4 s93 + 27 s94 + 48 s95 + 199 s96 + 34 s97 + 188 s98 + 9 s99 + 688 s100 + 10 s101 + 67 s102 + 241 s103 + 23 s104 + 265 s105 + 18 s106 + 88 s107 + 23 s108 + 174 s109 + 16 s110 + 174 s111 + 19 s112 + 174 s113 + 21 s114 + 120 s115 + 242 s116 + 151 s117 + 21 s118 + 210 s119 + 129 s120 + 4 s121 + 4 s122 + 18 s123 + 14 s124 + 61 s125 + 12 s126 + 401 s127 + 22 s128 + 328 s129 + 7 s130 + 701 s131 + 35 s132 + 591 s133 + 45 s134 + 143 s135 <= 6074



Binary
c0
c1
c2
c3
c4
c5
c6
c7
c8
c9
c10
c11
c12
c13
c14
c15
c16
c17
c18
c19
c20
c21
c22
c23
c24
c25
c26
c27
c28
c29
c30
c31
c32
c33
c34
c35
c36
c37
c38
c39
c40
c41
c42
c43
c44
c45
c46
c47
c48
c49
c50
c51
c52
c53
c54
c55
c56
c57
c58
c59
c60
c61
c62
c63
c64
c65
c66
c67
c68
c69
c70
c71
c72
c73
c74
c75
c76
c77
c78
c79
c80
c81
c82
c83
c84
c85
c86
c87
c88
c89
c90
c91
c92
c93
c94
c95
c96
c97
c98
c99
c100
c101
c102
c103
c104
c105
c106
c107
c108
c109
c110
c111
c112
c113
c114
c115
c116
c117
s0
s1
s2
s3
s4
s5
s6
s7
s8
s9
s10
s11
s12
s13
s14
s15
s16
s17
s18
s19
s20
s21
s22
s23
s24
s25
s26
s27
s28
s29
s30
s31
s32
s33
s34
s35
s36
s37
s38
s39
s40
s41
s42
s43
s44
s45
s46
s47
s48
s49
s50
s51
s52
s53
s54
s55
s56
s57
s58
s59
s60
s61
s62
s63
s64
s65
s66
s67
s68
s69
s70
s71
s72
s73
s74
s75
s76
s77
s78
s79
s80
s81
s82
s83
s84
s85
s86
s87
s88
s89
s90
s91
s92
s93
s94
s95
s96
s97
s98
s99
s100
s101
s102
s103
s104
s105
s106
s107
s108
s109
s110
s111
s112
s113
s114
s115
s116
s117
s118
s119
s120
s121
s122
s123
s124
s125
s126
s127
s128
s129
s130
s131
s132
s133
s134
s135
End